(set-logic ALL)
(set-option :produce-models true)
(declare-sort BoundSet 0)
(declare-sort UnboundSet 0)
(declare-fun IsSparring (BoundSet) Bool)
(declare-fun IsTwo (BoundSet) Bool)
(declare-fun IsFighting (BoundSet) Bool)
(assert (not (=> (and (exists ((a BoundSet)) (and (IsSparring a) (IsTwo a))) (and (forall ((b BoundSet)) (=> (IsSparring b) (IsFighting b))) (forall ((c BoundSet)) (=> (IsFighting c) (IsSparring c))))) (exists ((b BoundSet)) (exists ((a BoundSet)) (and (IsFighting a) (IsFighting b)))))))
(check-sat)
(get-model)